This is Ipopt version 3.12.13, running with linear solver ma57.

Number of nonzeros in equality constraint Jacobian...:        0
Number of nonzeros in inequality constraint Jacobian.:      930
Number of nonzeros in Lagrangian Hessian.............:       21

Total number of variables............................:        6
                     variables with only lower bounds:        0
                variables with lower and upper bounds:        6
                     variables with only upper bounds:        0
Total number of equality constraints.................:        0
Total number of inequality constraints...............:      155
        inequality constraints with only lower bounds:        0
   inequality constraints with lower and upper bounds:        0
        inequality constraints with only upper bounds:      155

iter    objective    inf_pr   inf_du lg(mu)  ||d||  lg(rg) alpha_du alpha_pr  ls
   0  2.5033038e+00 1.45e-01 6.39e-01   0.0 0.00e+00    -  0.00e+00 0.00e+00   0
   1  2.5075866e+00 1.45e-01 5.84e+01  -0.3 4.68e-01    -  9.90e-01 6.40e-02h  1
   2  2.5075855e+00 1.45e-01 9.12e+04  -1.7 1.45e-01    -  9.93e-01 6.84e-04h  1
   3r 2.5075855e+00 1.45e-01 1.00e+03  -0.8 0.00e+00    -  0.00e+00 4.28e-07R  5
   4r 2.5068476e+00 1.45e-01 9.50e+02  -0.4 2.36e+00    -  1.00e+00 4.76e-02f  1
   5r 2.5220176e+00 1.45e-01 3.58e+01  -0.5 4.37e-02    -  1.00e+00 9.62e-01f  1
   6r 2.5221852e+00 1.45e-01 2.53e-02  -1.1 2.77e-03    -  1.00e+00 1.00e+00f  1
   7r 2.5219497e+00 1.45e-01 2.84e+00  -1.9 3.09e-03    -  1.00e+00 9.94e-01f  1
   8r 2.5210714e+00 1.45e-01 7.60e-03  -2.9 6.67e-03    -  1.00e+00 1.00e+00f  1
   9r 2.5185856e+00 1.45e-01 1.22e-02  -4.2 1.73e-02    -  9.82e-01 1.00e+00f  1
iter    objective    inf_pr   inf_du lg(mu)  ||d||  lg(rg) alpha_du alpha_pr  ls
  10r 2.5149430e+00 1.45e-01 3.56e-04  -5.5 1.84e-02    -  1.00e+00 1.00e+00f  1
  11r 2.5120723e+00 1.45e-01 5.19e-05  -6.6 1.39e-02    -  1.00e+00 1.00e+00f  1
  12r 2.5092567e+00 1.45e-01 1.15e-05  -7.9 1.51e-02    -  1.00e+00 1.00e+00f  1

Number of Iterations....: 12

                                   (scaled)                 (unscaled)
Objective...............:   2.5077463656582717e+00    2.5077463656582717e+00
Dual infeasibility......:   3.0267308119341718e-01    3.0267308119341718e-01
Constraint violation....:   1.4458622725801235e-01    1.4458622725801235e-01
Complementarity.........:   1.0929070889182221e-07    1.0929070889182221e-07
Overall NLP error.......:   1.4458622725801235e-01    3.0267308119341718e-01


Number of objective function evaluations             = 19
Number of objective gradient evaluations             = 5
Number of equality constraint evaluations            = 0
Number of inequality constraint evaluations          = 19
Number of equality constraint Jacobian evaluations   = 0
Number of inequality constraint Jacobian evaluations = 15
Number of Lagrangian Hessian evaluations             = 13
Total CPU secs in IPOPT (w/o function evaluations)   =      0.006
Total CPU secs in NLP function evaluations           =      0.005

EXIT: Converged to a point of local infeasibility. Problem may be infeasible.
